param set_len = 16;
param target_sum = 2643836154;
param values := [1] 212589909 [2] 345638839 [3] 370679436 [4] 473599000 [5] 83124547 [6] 406911495 [7] 185444337 [8] 246795246 [9] 484717783 [10] 410348058 [11] 500354919 [12] 120266978 [13] 388173292 [14] 396498398 [15] 22555515 [16] 257670269 ;
